branch-and-cut/resultados/C/c19.sol
403.0
155
1 361
1 68
1 344
1 346
1 91
1 171
1 345
1 197
1 316
1 403
1 105
1 453
1 334
1 140
1 218
1 13
2 339
2 409
2 373
2 192
2 115
2 72
2 285
2 38
3 105
3 26
3 39
3 196
3 163
3 184
3 172
4 218
4 9
4 485
4 255
4 408
4 117
4 43
4 335
4 234
5 403
5 290
5 313
6 360
6 167
6 71
6 474
7 207
7 98
7 167
8 21
8 234
9 198
9 286
9 227
12 161
12 130
13 159
13 112
17 115
17 241
17 181
19 195
19 177
21 419
23 26
26 351
34 354
34 344
39 381
40 207
43 460
47 236
47 177
47 399
50 85
50 354
60 285
60 414
63 393
63 462
66 150
68 222
71 201
72 282
72 330
73 420
73 185
81 207
91 390
98 213
100 154
100 256
108 292
108 171
115 375
117 388
122 133
122 344
125 292
125 422
130 474
140 220
143 453
149 373
150 242
154 279
154 358
155 172
158 210
161 243
163 444
170 234
171 440
179 330
181 449
184 479
185 366
189 476
189 240
197 481
197 476
200 240
200 409
210 255
214 220
222 426
225 373
227 455
242 339
245 277
245 358
279 346
284 426
291 366
291 296
296 362
302 399
302 345
313 471
316 447
317 474
317 429
317 488
334 338
338 353
344 423
360 441
361 393
362 423
372 426
408 472
408 482
419 494
423 429
