branch-and-cut/resultados/C/c19.log
Set parameter Username
Academic license - for non-commercial use only - expires 2024-12-10
Set parameter LazyConstraints to value 1
Set parameter TimeLimit to value 600
Gurobi Optimizer version 10.0.0 build v10.0.0rc2 (linux64)

CPU model: Intel(R) Core(TM) i5-4590 CPU @ 3.30GHz, instruction set [SSE2|AVX|AVX2]
Thread count: 4 physical cores, 4 logical processors, using up to 4 threads

Optimize a model with 50125 rows, 12500 columns and 56165 nonzeros
Model fingerprint: 0x40f06211
Variable types: 0 continuous, 12500 integer (12500 binary)
Coefficient statistics:
  Matrix range     [1e+00, 1e+00]
  Objective range  [1e+00, 1e+01]
  Bounds range     [1e+00, 1e+00]
  RHS range        [1e+00, 1e+00]
Presolve removed 50000 rows and 0 columns
Presolve time: 0.01s
Presolved: 125 rows, 12500 columns, 6165 nonzeros
Variable types: 0 continuous, 12500 integer (12500 binary)

Root relaxation: objective 8.500000e+01, 144 iterations, 0.00 seconds (0.00 work units)

    Nodes    |    Current Node    |     Objective Bounds      |     Work
 Expl Unexpl |  Obj  Depth IntInf | Incumbent    BestBd   Gap | It/Node Time

     0     0   85.00000    0    -          -   85.00000      -     -    2s
     0     0   85.00000    0    -          -   85.00000      -     -    3s
     0     0   85.00000    0    -          -   85.00000      -     -    3s
     0     0   85.00000    0    6          -   85.00000      -     -    3s
     0     0  125.00000    0    -          -  125.00000      -     -    7s
     0     0  125.00000    0    -          -  125.00000      -     -    8s
     0     0  125.00000    0    -          -  125.00000      -     -    8s
     0     0  125.00000    0    -          -  125.00000      -     -    9s
     0     0  125.00000    0    -          -  125.00000      -     -    9s
     0     0  125.00000    0    -          -  125.00000      -     -    9s
     0     0  125.00000    0    -          -  125.00000      -     -   10s
H    0     0                     577.0000000  125.00000  78.3%     -   10s
     0     0  125.00000    0    5  577.00000  125.00000  78.3%     -   10s
H    0     0                     472.0000000  125.00000  73.5%     -   11s
     0     0  125.00000    0    5  472.00000  125.00000  73.5%     -   15s
     0     0  125.00000    0    5  472.00000  125.00000  73.5%     -   20s
H    0     2                     459.0000000  125.00000  72.8%     -   21s
     0     2  128.50000    0    3  459.00000  128.50000  72.0%     -   21s
H    1     4                     450.0000000  128.50000  71.4%   0.0   22s
H    3     8                     446.0000000  128.50000  71.2%   2.0   24s
H    7    12                     438.0000000  128.50000  70.7%   2.7   26s
H   11    16                     435.0000000  128.50000  70.5%   3.0   28s
H   15    20                     421.0000000  128.50000  69.5%   3.3   30s
H   23    32                     415.0000000  128.50000  69.0%   3.4   34s
    31    35  128.50000    6    3  415.00000  128.50000  69.0%   3.7   37s
    64    38  129.00000    6    -  415.00000  128.50000  69.0%   3.4   50s
    98    61  128.50000    6    3  415.00000  128.50000  69.0%   3.4   63s
   105    64  129.00000    7    -  415.00000  128.50000  69.0%   3.6   66s
   129    56  129.00000   10    -  415.00000  128.50000  69.0%   3.4   76s
   155     0  129.00000    7    -  415.00000  129.00000  68.9%   3.6   88s
   188    32  129.00000    9    -  415.00000  129.00000  68.9%   3.8  104s
   238     0  129.00000    7    -  415.00000  129.00000  68.9%   4.1  128s
   259    19  129.00000    6    -  415.00000  129.00000  68.9%   3.9  140s
H  261    21                     412.0000000  129.00000  68.7%   3.9  141s
   335     0  129.00000    7    -  412.00000  129.00000  68.7%   3.7  172s
   352    16  129.00000    9    -  412.00000  129.00000  68.7%   3.6  181s
H  376    38                     411.0000000  129.00000  68.6%   3.6  193s
   436    33  129.00000    7    -  411.00000  129.00000  68.6%   3.5  218s
   481    76  129.00000    7    -  411.00000  129.00000  68.6%   3.5  238s
   496    91  129.00000    8    -  411.00000  129.00000  68.6%   3.5  244s
   504     3  129.00000    7    -  411.00000  129.00000  68.6%   3.4  249s
   517    16  129.00000   10    -  411.00000  129.00000  68.6%   3.4  255s
H  527    26                     410.0000000  129.00000  68.5%   3.4  263s
   541    40  129.00000    7    -  410.00000  129.00000  68.5%   3.5  267s
H  552    49                     409.0000000  129.00000  68.5%   3.5  274s
   579    75  129.00000   10    -  409.00000  129.00000  68.5%   3.5  283s
   615     0  129.00000    7    -  409.00000  129.00000  68.5%   3.5  298s
   626    11  129.00000    9    -  409.00000  129.00000  68.5%   3.5  302s
   637    22  129.00000    7    -  409.00000  129.00000  68.5%   3.4  310s
H  640    25                     403.0000000  129.00000  68.0%   3.4  312s
   666    50  129.00000    8    -  403.00000  129.00000  68.0%   3.4  324s
   725     0  129.00000    7    -  403.00000  129.00000  68.0%   3.4  348s
   734     9  129.00000    7    -  403.00000  129.00000  68.0%   3.3  352s
   743    18  129.00000    9    -  403.00000  129.00000  68.0%   3.3  357s
   833    73  129.00000    7    -  403.00000  129.00000  68.0%   3.3  396s
   849    89  129.00000    7    -  403.00000  129.00000  68.0%   3.3  403s
   857    97  129.00000    7    -  403.00000  129.00000  68.0%   3.2  407s
   874     0  129.00000    7    -  403.00000  129.00000  68.0%   3.2  416s
   890    16  129.00000    6    -  403.00000  129.00000  68.0%   3.2  421s
   925    49  129.00000   12    -  403.00000  129.00000  68.0%   3.3  433s
   933    57  129.00000   10    -  403.00000  129.00000  68.0%   3.3  436s
   993     0  129.00000    7    -  403.00000  129.00000  68.0%   3.3  455s
  1014    21  129.00000    7    -  403.00000  129.00000  68.0%   3.3  462s
  1108     0  129.00000    7    -  403.00000  129.00000  68.0%   3.3  492s
  1122    14  129.00000    7    -  403.00000  129.00000  68.0%   3.3  495s
  1136    28  129.00000   10    -  403.00000  129.00000  68.0%   3.3  500s
  1223     0  129.00000    7    -  403.00000  129.00000  68.0%   3.2  526s
  1237    14  129.00000    7    -  403.00000  129.00000  68.0%   3.2  530s
  1251    28  129.00000   11    -  403.00000  129.00000  68.0%   3.2  535s
  1338     0  129.00000    7    -  403.00000  129.00000  68.0%   3.2  563s
  1345     6  129.00000    7    -  403.00000  129.00000  68.0%   3.3  565s
  1359    20  129.00000    5    -  403.00000  129.00000  68.0%   3.3  572s

Cutting planes:
  User: 2
  Lazy constraints: 290

Explored 1455 nodes (5253 simplex iterations) in 602.47 seconds (2.43 work units)
Thread count was 4 (of 4 available processors)

Solution count 10: 403 409 410 ... 446

Time limit reached
Best objective 4.030000000000e+02, best bound 1.290000000000e+02, gap 67.9901%

User-callback calls 3662, time in user-callback 594.74 sec
